NAME : local_10
TYPE : ATSP
DIMENSION : 10
EDGE_WEIGHT_TYPE : EXPLICIT
EDGE_WEIGHT_FORMAT : FULL_MATRIX
EDGE_WEIGHT_SECTION
0 563 718 147 10000000 719 716 893 936 693 
0 0 234 561 922 405 10000000 474 1013 10000000 
0 234 0 741 740 436 10000000 270 896 10000000 
0 561 741 0 10000000 765 820 930 1038 801 
0 922 740 10000000 0 972 853 510 384 961 
0 405 436 765 972 0 10000000 653 10000000 10000000 
0 10000000 10000000 820 816 10000000 0 1040 458 196 
0 474 270 920 510 653 1285 0 659 10000000 
0 1078 906 1278 384 10000000 458 658 0 589 
0 10000000 10000000 10000000 10000000 10000000 10000000 10000000 10000000 0 
EOF